50
4338

308 551
509 6
223 248
450 765
177 767
920 814
866 121
203 501
116 544
743 906
81 989
905 301
48 952
568 342
366 305
277 67
367 879
592 254
543 5
541 444
224 576
542 442
469 680
775 438
359 911
772 955
770 789
442 47
354 470
732 151
462 747
199 535
752 272
424 840
143 912
598 429
635 99
909 75
116 968
18 905
16 282
678 197
886 227
996 711
427 449
704 730
241 390
626 202
655 373
135 218
